(declare-fun var0 () String)
(assert (RegexIn var0 (RegexConcat (RegexStar (RegexStar (Str2Reg "UU"))) (RegexConcat (RegexStar (RegexPlus (Str2Reg "T"))) (RegexConcat (RegexPlus (RegexPlus (Str2Reg "SS"))) (RegexConcat (RegexStar (RegexStar (Str2Reg "R"))) (RegexConcat (RegexStar (RegexStar (Str2Reg "QQQ"))) (RegexConcat (RegexPlus (RegexPlus (Str2Reg "PP"))) (RegexConcat (RegexUnion (RegexPlus (Str2Reg "NN")) (RegexStar (Str2Reg "OO"))) (RegexConcat (RegexStar (RegexPlus (Str2Reg "MM"))) (RegexConcat (RegexStar (RegexUnion (Str2Reg "KKK") (Str2Reg "LL"))) (RegexConcat (RegexUnion (RegexUnion (Str2Reg "G") (Str2Reg "HH")) (RegexUnion (Str2Reg "III") (Str2Reg "J"))) (RegexConcat (RegexUnion (RegexPlus (Str2Reg "E")) (RegexPlus (Str2Reg "FFF"))) (RegexConcat (RegexUnion (RegexStar (Str2Reg "B")) (RegexUnion (Str2Reg "CCC") (Str2Reg "DDD"))) (RegexConcat (RegexUnion (RegexStar (Str2Reg "z")) (RegexStar (Str2Reg "AA"))) (RegexConcat (RegexStar (RegexPlus (Str2Reg "y"))) (RegexConcat (RegexPlus (RegexUnion (Str2Reg "www") (Str2Reg "x"))) (RegexConcat (RegexUnion (RegexStar (Str2Reg "u")) (RegexPlus (Str2Reg "v"))) (RegexConcat (RegexUnion (RegexUnion (Str2Reg "qq") (Str2Reg "r")) (RegexUnion (Str2Reg "sss") (Str2Reg "t"))) (RegexConcat (RegexStar (RegexPlus (Str2Reg "pp"))) (RegexConcat (RegexUnion (RegexStar (Str2Reg "nn")) (RegexPlus (Str2Reg "o"))) (RegexConcat (RegexStar (RegexPlus (Str2Reg "mm"))) (RegexConcat (RegexUnion (RegexStar (Str2Reg "jjj")) (RegexUnion (Str2Reg "kk") (Str2Reg "lll"))) (RegexConcat (RegexPlus (RegexUnion (Str2Reg "hh") (Str2Reg "iii"))) (RegexConcat (RegexUnion (RegexUnion (Str2Reg "eee") (Str2Reg "ff")) (RegexStar (Str2Reg "gg"))) (RegexConcat (RegexPlus (RegexStar (Str2Reg "d"))) (RegexConcat (RegexUnion (RegexPlus (Str2Reg "aa")) (RegexUnion (Str2Reg "b") (Str2Reg "ccc"))) (RegexConcat (RegexStar (RegexStar (Str2Reg "9"))) (RegexConcat (RegexStar (RegexStar (Str2Reg "88"))) (RegexConcat (RegexStar (RegexUnion (Str2Reg "66") (Str2Reg "7"))) (RegexConcat (RegexPlus (RegexStar (Str2Reg "5"))) (RegexConcat (RegexUnion (RegexUnion (Str2Reg "1") (Str2Reg "2")) (RegexUnion (Str2Reg "333") (Str2Reg "44"))) (RegexStar (RegexStar (Str2Reg "00")))))))))))))))))))))))))))))))))))
(check-sat)